Gurobi Optimizer version 9.1.0 build v9.1.0rc0 (linux64)
Thread count: 8 physical cores, 16 logical processors, using up to 16 threads
Optimize a model with 415466 rows, 400800 columns and 2301950 nonzeros
Model fingerprint: 0xcc34e532
Variable types: 0 continuous, 400800 integer (400800 binary)
Coefficient statistics:
  Matrix range     [1e+00, 1e+00]
  Objective range  [1e+01, 1e+05]
  Bounds range     [1e+00, 1e+00]
  RHS range        [1e+00, 1e+03]
Presolve removed 6050 rows and 50 columns (presolve time = 7s) ...
Presolve added 0 rows and 5950 columns
Presolve removed 50 rows and 0 columns
Presolve time: 8.54s
Presolved: 415416 rows, 406750 columns, 1719850 nonzeros
Variable types: 0 continuous, 406750 integer (406750 binary)
Found heuristic solution: objective 656476.00000

Concurrent LP optimizer: primal simplex, dual simplex, and barrier
Showing barrier log only...

Root barrier log...

Ordering time: 0.15s

Barrier statistics:
 Dense cols : 400
 AA' NZ     : 1.332e+06
 Factor NZ  : 5.533e+06 (roughly 400 MBytes of memory)
 Factor Ops : 1.335e+09 (less than 1 second per iteration)
 Threads    : 6

                  Objective                Residual
Iter       Primal          Dual         Primal    Dual     Compl     Time
   0   5.34592974e+08 -7.69314035e+08  6.15e+02 2.88e+01  2.83e+04    18s
   1   3.10570065e+06 -7.70735219e+08  1.88e+01 1.51e+04  9.35e+02    19s
   2   1.55417667e+06 -6.92001896e+07  6.62e+00 7.38e+02  1.31e+02    20s
   3   1.12324028e+06 -2.22222786e+07  3.23e+00 4.60e+01  3.62e+01    21s
   4   7.16957476e+05 -5.69923531e+06  1.10e-01 1.56e+00  5.49e+00    22s
   5   6.60707950e+05 -8.62310776e+05  1.97e-02 3.18e-01  1.25e+00    23s
   6   6.39068742e+05  1.74325850e+05  1.41e-02 8.80e-02  3.81e-01    24s
   7   6.20925286e+05  3.41379553e+05  1.18e-02 4.42e-02  2.28e-01    26s
   8   6.11994670e+05  3.97275971e+05  1.08e-02 2.94e-02  1.75e-01    27s
   9   6.02460664e+05  4.18300215e+05  9.78e-03 2.42e-02  1.50e-01    28s
  10   6.00649550e+05  4.26455638e+05  9.59e-03 2.21e-02  1.42e-01    29s
  11   5.96103396e+05  4.46164353e+05  9.13e-03 1.62e-02  1.22e-01    30s
  12   5.84457041e+05  4.63603909e+05  7.95e-03 1.14e-02  9.84e-02    31s
  13   5.74470179e+05  4.76830202e+05  7.02e-03 7.48e-03  7.94e-02    32s
  14   5.65610456e+05  4.83927488e+05  6.29e-03 5.20e-03  6.64e-02    34s
  15   5.59915699e+05  4.88146783e+05  5.80e-03 4.37e-03  5.83e-02    35s
  16   5.52598099e+05  4.90814915e+05  5.14e-03 3.40e-03  5.02e-02    36s
  17   5.49033674e+05  4.93069639e+05  4.78e-03 2.57e-03  4.54e-02    37s
  18   5.44352299e+05  4.94966120e+05  4.34e-03 1.92e-03  4.01e-02    38s
  19   5.40925444e+05  4.95906610e+05  4.05e-03 1.78e-03  3.65e-02    39s
  20   5.33273148e+05  4.96851962e+05  3.34e-03 1.51e-03  2.95e-02    40s
  21   5.31036356e+05  4.97518292e+05  3.13e-03 1.63e-03  2.72e-02    42s
  22   5.27467871e+05  4.98337004e+05  2.76e-03 2.46e-03  2.36e-02    43s
  23   5.25527408e+05  4.98915759e+05  2.57e-03 2.07e-03  2.16e-02    44s
  24   5.23449022e+05  4.99411714e+05  2.36e-03 1.74e-03  1.95e-02    45s
  25   5.21590758e+05  4.99676049e+05  2.19e-03 1.51e-03  1.78e-02    46s
  26   5.18391235e+05  4.99910203e+05  1.86e-03 1.40e-03  1.50e-02    47s
  27   5.16492313e+05  5.00126646e+05  1.67e-03 1.15e-03  1.33e-02    48s
  28   5.15114500e+05  5.00517051e+05  1.53e-03 8.32e-04  1.18e-02    49s
  29   5.14321883e+05  5.00693713e+05  1.45e-03 7.20e-04  1.10e-02    50s
  30   5.12746859e+05  5.00851109e+05  1.29e-03 9.86e-04  9.63e-03    51s
  31   5.12144896e+05  5.01023808e+05  1.22e-03 7.78e-04  9.01e-03    52s
  32   5.11871656e+05  5.01101908e+05  1.18e-03 7.81e-04  8.72e-03    53s
  33   5.10490879e+05  5.01245119e+05  1.04e-03 7.81e-04  7.48e-03    54s
  34   5.09488130e+05  5.01301724e+05  9.26e-04 6.30e-04  6.63e-03    55s
  35   5.08765239e+05  5.01354616e+05  8.49e-04 6.14e-04  6.00e-03    56s
  36   5.07970142e+05  5.01410287e+05  7.65e-04 6.64e-04  5.31e-03    56s
  37   5.07236712e+05  5.01455101e+05  6.89e-04 5.98e-04  4.68e-03    57s
  38   5.06535611e+05  5.01498684e+05  6.08e-04 5.03e-04  4.07e-03    58s
  39   5.05943393e+05  5.01528943e+05  5.42e-04 5.53e-04  3.57e-03    59s
  40   5.05633915e+05  5.01590622e+05  5.00e-04 6.10e-04  3.27e-03    60s
  41   5.05096553e+05  5.01609282e+05  4.35e-04 5.63e-04  2.82e-03    61s
  42   5.04958518e+05  5.01630165e+05  4.18e-04 4.96e-04  2.69e-03    62s
  43   5.04658868e+05  5.01660123e+05  3.84e-04 4.00e-04  2.42e-03    63s
  44   5.04410317e+05  5.01681064e+05  3.55e-04 4.05e-04  2.21e-03    64s
  45   5.04300819e+05  5.01693214e+05  3.42e-04 3.80e-04  2.11e-03    64s
  46   5.04048546e+05  5.01707045e+05  3.08e-04 3.09e-04  1.89e-03    65s
  47   5.03911970e+05  5.01732502e+05  2.92e-04 2.59e-04  1.76e-03    66s
  48   5.03786601e+05  5.01733539e+05  2.75e-04 2.54e-04  1.66e-03    67s
  49   5.03560240e+05  5.01751768e+05  2.44e-04 1.97e-04  1.46e-03    68s
  50   5.03323505e+05  5.01758898e+05  2.15e-04 1.71e-04  1.26e-03    69s
  51   5.03281762e+05  5.01765802e+05  2.10e-04 1.53e-04  1.22e-03    70s
  52   5.03137006e+05  5.01771910e+05  1.90e-04 1.38e-04  1.10e-03    71s
  53   5.02981264e+05  5.01778507e+05  1.70e-04 1.21e-04  9.71e-04    72s
  54   5.02785147e+05  5.01783648e+05  1.43e-04 1.05e-04  8.08e-04    73s
  55   5.02640339e+05  5.01788043e+05  1.23e-04 9.20e-05  6.88e-04    74s
  56   5.02604610e+05  5.01790226e+05  1.18e-04 8.64e-05  6.57e-04    75s
  57   5.02539968e+05  5.01793894e+05  1.09e-04 7.59e-05  6.02e-04    76s
  58   5.02396669e+05  5.01797881e+05  8.92e-05 6.93e-05  4.83e-04    77s
  59   5.02330983e+05  5.01801623e+05  7.94e-05 5.94e-05  4.27e-04    77s
  60   5.02283592e+05  5.01805027e+05  7.22e-05 4.96e-05  3.86e-04    78s
  61   5.02179560e+05  5.01808846e+05  5.73e-05 4.00e-05  2.99e-04    79s
  62   5.02121981e+05  5.01811420e+05  4.91e-05 3.30e-05  2.50e-04    80s
  63   5.02088931e+05  5.01814076e+05  4.39e-05 2.60e-05  2.22e-04    81s
  64   5.02042997e+05  5.01816249e+05  3.67e-05 1.88e-05  1.83e-04    82s
  65   5.01984778e+05  5.01818151e+05  2.76e-05 1.58e-05  1.34e-04    83s
  66   5.01976782e+05  5.01819299e+05  2.65e-05 1.40e-05  1.27e-04    84s
  67   5.01954528e+05  5.01820205e+05  2.28e-05 1.25e-05  1.08e-04    85s
  68   5.01942906e+05  5.01821715e+05  2.07e-05 1.05e-05  9.76e-05    86s
  69   5.01930119e+05  5.01822258e+05  1.86e-05 9.24e-06  8.68e-05    87s
  70   5.01906720e+05  5.01823471e+05  1.45e-05 7.29e-06  6.70e-05    88s
  71   5.01893566e+05  5.01824128e+05  1.22e-05 5.78e-06  5.59e-05    89s
  72   5.01876617e+05  5.01825325e+05  9.02e-06 3.91e-06  4.13e-05    90s
  73   5.01866252e+05  5.01825770e+05  7.13e-06 3.05e-06  3.26e-05    90s
  74   5.01856522e+05  5.01826646e+05  5.45e-06 1.92e-06  2.40e-05    91s
  75   5.01850694e+05  5.01826856e+05  4.35e-06 1.57e-06  1.92e-05    92s
  76   5.01845123e+05  5.01827107e+05  3.30e-06 1.15e-06  1.45e-05    93s
  77   5.01838324e+05  5.01827389e+05  1.98e-06 7.30e-07  8.79e-06    94s
  78   5.01835743e+05  5.01827521e+05  1.50e-06 5.37e-07  6.61e-06    95s
  79   5.01835190e+05  5.01827623e+05  1.40e-06 4.43e-07  6.08e-06    96s
  80   5.01833565e+05  5.01827766e+05  1.08e-06 6.06e-07  4.66e-06    97s
  81   5.01832115e+05  5.01827873e+05  8.14e-07 3.46e-07  3.41e-06    98s
  82   5.01831275e+05  5.01827910e+05  6.53e-07 2.52e-07  2.70e-06    99s
  83   5.01829975e+05  5.01827962e+05  3.84e-07 3.30e-07  1.62e-06   100s
  84   5.01828820e+05  5.01828033e+05  1.50e-07 5.99e-08  6.32e-07   100s
  85   5.01828156e+05  5.01828055e+05  1.49e-08 1.83e-08  8.15e-08   101s
  86   5.01828093e+05  5.01828070e+05  3.97e-09 3.94e-10  1.91e-08   102s
  87   5.01828093e+05  5.01828070e+05  2.23e-08 4.41e-10  1.91e-08   103s
  88   5.01828093e+05  5.01828070e+05  2.32e-08 4.52e-10  1.91e-08   103s
  89   5.01828093e+05  5.01828070e+05  2.23e-08 2.33e-10  1.91e-08   104s

Barrier solved model in 89 iterations and 104.47 seconds
Optimal objective 5.01828093e+05


Root crossover log...

  222163 variables added to crossover basis                      106s
  227960 variables added to crossover basis                      110s

  186374 DPushes remaining with DInf 0.0000000e+00               114s
     173 DPushes remaining with DInf 0.0000000e+00               118s
       0 DPushes remaining with DInf 0.0000000e+00               120s

    2594 PPushes remaining with PInf 2.0615158e-06               120s
       0 PPushes remaining with PInf 1.3790414e-06               120s

  Push phase complete: Pinf 1.3790414e-06, Dinf 1.2837631e-09    121s


Root simplex log...

Iteration    Objective       Primal Inf.    Dual Inf.      Time
   39703    5.0182807e+05   1.379041e-06   0.000000e+00    121s
   39707    5.0182807e+05   0.000000e+00   0.000000e+00    121s
   39707    5.0182807e+05   0.000000e+00   0.000000e+00    122s

Solved with barrier

Root relaxation: objective 5.018281e+05, 39707 iterations, 106.92 seconds
Total elapsed time = 126.99s

    Nodes    |    Current Node    |     Objective Bounds      |     Work
 Expl Unexpl |  Obj  Depth IntInf | Incumbent    BestBd   Gap | It/Node Time

     0     0 501828.070    0 43007 656476.000 501828.070  23.6%     -  131s
H    0     0                    542322.00000 501828.070  7.47%     -  139s
H    0     0                    542207.00000 501828.070  7.45%     -  144s
H    0     0                    541740.00000 501828.070  7.37%     -  154s
     0     0 501828.819    0 43007 541740.000 501828.819  7.37%     -  198s

Cutting planes:
  Gomory: 1

Explored 1 nodes (45356 simplex iterations) in 300.31 seconds
Thread count was 16 (of 16 available processors)

Solution count 4: 541740 542207 542322 656476 

Time limit reached
Best objective 5.417400000000e+05, best bound 5.018290000000e+05, gap 7.3672%

User-callback calls 27332, time in user-callback 0.39 sec
['/opt/local/stow/gurobi910/linux64/lib/libgurobi91.so']
Result: runtime=198.04sec; objective=541740; gap=0.0737%
Solution written to /autofs/unityaccount/cremi/mdeboute/Bureau/multi-period-flp/solution//instSingle_I50_J1000_T8_1_result.txt
